IrO2 (110) slab — 2x1 supercell with 20 Ang vacuum (OER study)
  1.00000000
     6.36100006   0.00000000   0.00000000
     0.00000000   3.17900003   0.00000000
     0.00000000   0.00000000  30.00000000
   Ir   O
    4   8
Selective dynamics
Cartesian
  0.000000000   0.000000000   5.000000000   F  F  F
  3.180500030   1.589500010   5.000000000   F  F  F
  1.590250015   0.000000000   7.970000267   T  T  T
  4.770750046   1.589500010   7.970000267   T  T  T
  0.000000000   1.589500010   4.000000000   F  F  F
  3.180500030   0.000000000   4.000000000   F  F  F
  1.590250015   1.589500010   6.009999752   T  T  T
  4.770750046   0.000000000   6.009999752   T  T  T
  0.000000000   0.000000000   9.930000305   T  T  T
  3.180500030   1.589500010   9.930000305   T  T  T
  0.000000000   1.589500010   8.949999809   T  T  T
  3.180500030   0.000000000   8.949999809   T  T  T
