MoS2 monolayer — 3x3 supercell with 20 Ang vacuum (HER study)
  1.00000000
     9.50100000   0.00000000   0.00000000
    -4.75050000   8.22900000   0.00000000
     0.00000000   0.00000000  24.00000000
   Mo   S
    9  18
Selective dynamics
Cartesian
  0.000000000   0.000000000  12.000000000   F  F  F
  3.166999817   0.000000000  12.000000000   F  F  F
  6.334000183   0.000000000  12.000000000   F  F  F
  1.583499908   2.743000030  12.000000000   F  F  F
  4.750499725   2.743000030  12.000000000   F  F  F
  7.917499542   2.743000030  12.000000000   F  F  F
  3.166999817   5.486000061  12.000000000   F  F  F
  6.334000183   5.486000061  12.000000000   F  F  F
  7.917499542   8.229000091  12.000000000   F  F  F
  0.000000000   0.000000000  10.436999559   F  F  F
  3.166999817   0.000000000  10.436999559   F  F  F
  6.334000183   0.000000000  10.436999559   F  F  F
  1.583499908   2.743000030  10.436999559   F  F  F
  4.750499725   2.743000030  10.436999559   F  F  F
  7.917499542   2.743000030  10.436999559   F  F  F
  3.166999817   5.486000061  10.436999559   F  F  F
  6.334000183   5.486000061  10.436999559   F  F  F
  7.917499542   8.229000091  10.436999559   F  F  F
  0.000000000   0.000000000  13.563000441   F  F  F
  3.166999817   0.000000000  13.563000441   F  F  F
  6.334000183   0.000000000  13.563000441   F  F  F
  1.583499908   2.743000030  13.563000441   F  F  F
  4.750499725   2.743000030  13.563000441   F  F  F
  7.917499542   2.743000030  13.563000441   F  F  F
  3.166999817   5.486000061  13.563000441   F  F  F
  6.334000183   5.486000061  13.563000441   F  F  F
  7.917499542   8.229000091  13.563000441   F  F  F
